NAME: I10729-n43-k4
COMMENT : (Fake et al, No of trucks: 4, Optimal value: )
TYPE : CVRP
DIMENSION : 43
EDGE_WEIGHT_TYPE : EUC_2D
CAPACITY : 13
NODE_COORD_SECTION
1 626 937
2 981 500
3 56 314
4 524 60
5 934 445
6 640 549
7 271 274
8 191 973
9 130 50
10 563 164
11 822 306
12 734 460
13 117 252
14 5 87
15 924 672
16 371 162
17 867 606
18 520 148
19 195 26
20 993 124
21 535 597
22 907 961
23 177 918
24 689 409
25 844 863
26 171 906
27 65 675
28 833 6
29 396 932
30 882 761
31 550 510
32 160 366
33 820 22
34 292 587
35 496 297
36 223 984
37 808 216
38 555 644
39 286 894
40 183 294
41 756 303
42 26 914
43 619 867
DEMAND_SECTION
1 0
2 1
3 1
4 1
5 1
6 1
7 1
8 1
9 1
10 1
11 1
12 1
13 1
14 1
15 1
16 1
17 1
18 1
19 1
20 1
21 1
22 1
23 1
24 1
25 1
26 1
27 1
28 1
29 1
30 1
31 1
32 1
33 1
34 1
35 1
36 1
37 1
38 1
39 1
40 1
41 1
42 1
43 1
DEPOT_SECTION
 1
 -1
 EOF 